data;

set INIMIGOS := homens mulheres;
set VENENOS := alfa beta;

param eliminar :=
    homens        20
    mulheres      10;

param disponibilidade :=
    alfa      500
    beta      2000;

param proporcao :=
    alfa      3
    beta      1;

param eficacia :=
    homens alfa        12
    homens beta        6
    mulheres alfa      6
    mulheres beta      3;

end;